qe/outputs/qe/qe_queries/T=5,eliminate=[I_0,I_1,I_2,I_3,I_4,L_1,L_2,L_3,L_4,C,B].smt2
; benchmark generated from python API
(set-info :status unknown)
(declare-fun L_0 () Real)
(declare-fun S_2 () Real)
(declare-fun A_2 () Real)
(declare-fun S_1 () Real)
(declare-fun A_1 () Real)
(declare-fun S_3 () Real)
(declare-fun A_3 () Real)
(declare-fun S_4 () Real)
(declare-fun A_0 () Real)
(declare-fun S_0 () Real)
(declare-fun A_4 () Real)
(assert
 (let (($x14222 (<= (+ S_4 (* (- 3.0) S_3) (* 2.0 S_1)) 0.0)))
 (let (($x5881 (<= (+ A_0 (* (- 1.0) A_1)) 0.0)))
 (let (($x3796 (<= (+ A_2 (* (- 1.0) S_3) (* (- 1.0) A_1) S_1) 0.0)))
 (let ((?x2176 (* (- (/ 1.0 2.0)) A_3)))
 (let ((?x2248 (* (/ 1.0 2.0) A_2)))
 (let ((?x1347 (* (- (/ 1.0 2.0)) A_0)))
 (let ((?x2983 (* (/ 1.0 2.0) S_0)))
 (let ((?x1255 (* (- 1.0) S_3)))
 (let ((?x1327 (* (/ 1.0 2.0) S_4)))
 (let ((?x1561 (* (/ 1.0 2.0) A_1)))
 (let (($x20239 (<= (+ ?x1561 ?x1327 ?x1255 ?x2983 ?x1347 ?x2248 ?x2176) 0.0)))
 (let (($x5753 (<= (+ (* (- 1.0) A_3) S_4 A_0 (* (- 1.0) S_2)) 0.0)))
 (let (($x4175 (<= (+ A_2 S_4 (* (- 1.0) A_4) ?x1255) 0.0)))
 (let (($x2425 (<= (+ A_1 (* (- 1.0) S_2) (* (- 1.0) L_0)) 0.0)))
 (let ((?x895 (* (- 1.0) A_0)))
 (let ((?x1343 (* (- 1.0) S_2)))
 (let ((?x824 (* (- 1.0) A_4)))
 (let (($x14616 (<= (+ S_4 ?x824 A_1 ?x1255 ?x1343 S_0 ?x895 A_2) 0.0)))
 (let (($x1345 (<= (+ (* (/ 1.0 4.0) S_4) (* (/ 3.0 4.0) A_0) (* (- (/ 3.0 4.0)) L_0) ?x1343) 0.0)))
 (let (($x11860 (<= (+ (* (- 1.0) A_3) A_1 ?x1343 S_0 ?x895 A_2) 0.0)))
 (let (($x1737 (<= (+ (* (- 1.0) A_3) A_2) 0.0)))
 (let (($x6189 (<= (+ (* (- 1.0) A_3) S_4 A_1 ?x1255) 0.0)))
 (let (($x889 (<= (+ ?x1327 (* (/ 1.0 2.0) A_0) (* (- (/ 1.0 2.0)) L_0) ?x1255) 0.0)))
 (let ((?x1708 (* (/ 1.0 2.0) A_3)))
 (let ((?x1262 (* (- (/ 1.0 2.0)) L_0)))
 (let ((?x2244 (* (- (/ 1.0 2.0)) S_2)))
 (let ((?x1574 (* (- (/ 1.0 2.0)) A_4)))
 (let (($x12474 (<= (+ ?x2248 ?x1327 ?x1574 ?x1255 ?x2244 ?x1262 ?x2983 ?x1708) 0.0)))
 (let (($x5934 (<= (+ ?x1347 (* (- (/ 1.0 2.0)) S_3) (* (/ 1.0 2.0) L_0) S_1) 0.0)))
 (let (($x4519 (<= (+ ?x2248 ?x1327 ?x1574 ?x1255 (* (/ 1.0 2.0) A_0) ?x1262 (* (- (/ 1.0 2.0)) A_1) ?x1708) 0.0)))
 (let (($x2123 (<= (+ A_2 ?x1255 (* (- 1.0) L_0)) 0.0)))
 (let (($x1529 (<= (+ A_1 S_4 ?x824 ?x1343) 0.0)))
 (let (($x5373 (<= (+ (* (- 1.0) A_3) S_4 A_2 ?x1255 A_0 ?x1343 (* (- 1.0) L_0)) 0.0)))
 (let (($x2583 (<= (+ (* 2.0 A_1) S_4 (* (- 3.0) S_3) (* (- 2.0) L_0)) 0.0)))
 (let (($x2303 (<= (+ ?x1327 ?x1574 ?x1255 ?x1561 ?x2983 ?x1347 ?x1708) 0.0)))
 (let (($x4357 (<= (+ ?x1327 (* (- (/ 1.0 2.0)) S_3) A_0 ?x1343 (* (- 1.0) L_0)) 0.0)))
 (let (($x3865 (<= (+ ?x824 A_3) 0.0)))
 (let (($x2895 (<= (+ ?x824 A_1 ?x1343 S_0 ?x895 A_3) 0.0)))
 (let ((?x1348 (* (/ 1.0 2.0) L_0)))
 (let ((?x3163 (* (- (/ 1.0 2.0)) S_3)))
 (let ((?x1279 (* (/ 1.0 2.0) A_0)))
 (let ((?x793 (* (- 1.0) A_3)))
 (let (($x6054 (<= (+ ?x793 S_4 ?x1279 ?x3163 ?x1348) 0.0)))
 (let (($x3610 (<= (+ S_3 A_1 ?x1343 ?x793) 0.0)))
 (let ((?x841 (* (- 1.0) A_2)))
 (let ((?x900 (* (- 1.0) A_1)))
 (let ((?x1397 (* (- 1.0) S_4)))
 (let (($x3418 (<= (+ ?x900 ?x1397 (* 2.0 S_2) L_0) 0.0)))
 (let (($x69378 (or $x3418 (<= (+ A_3 ?x1397 ?x900 S_1) 0.0) $x5881 (<= (+ A_3 ?x1397 ?x900 S_2 A_0 ?x841) 0.0))))
 (let (($x3428 (<= (+ S_2 (* (- 1.0) S_1) A_0 ?x841) 0.0)))
 (let (($x1982 (<= (+ A_3 ?x1397 ?x841 S_2) 0.0)))
 (let (($x1805 (<= (+ S_3 (* 2.0 A_0) (* (- 3.0) S_2) (* (- 2.0) L_0)) 0.0)))
 (let ((?x11130 (+ (* (/ 2.0 3.0) A_1) (* (/ 1.0 3.0) S_4) (* (- (/ 2.0 3.0)) A_4) ?x1343 (* (/ 2.0 3.0) S_0) (* (- (/ 2.0 3.0)) A_0) (* (/ 2.0 3.0) A_2))))
 (let (($x12143 (<= ?x11130 0.0)))
 (let ((?x2571 (* (- 3.0) S_3)))
 (let ((?x1589 (* 2.0 A_1)))
 (let ((?x1591 (* (- 2.0) A_4)))
 (let ((?x3058 (* 3.0 S_4)))
 (let (($x15660 (<= (+ A_2 ?x824 ?x1255 ?x895 S_0 A_3) 0.0)))
 (let ((?x13624 (+ (* (/ 2.0 5.0) A_1) (* (/ 3.0 5.0) S_4) (* (- (/ 2.0 5.0)) A_4) ?x1255 (* (/ 2.0 5.0) S_0) (* (- (/ 2.0 5.0)) A_0) (* (/ 2.0 5.0) A_2))))
 (let (($x38579 (or $x2425 $x2895 $x3865 (<= (+ (* (- (/ 1.0 2.0)) A_2) ?x1327 A_0 ?x1343 ?x1262) 0.0))))
 (let (($x10128 (<= (+ ?x1397 (* (- 2.0) A_0) (* 2.0 L_0) (* 3.0 S_1)) 0.0)))
 (let (($x11141 (<= (+ ?x1397 ?x895 S_2 L_0 S_1) 0.0)))
 (let (($x1597 (<= (+ A_1 ?x841) 0.0)))
 (let (($x2116 (<= (+ ?x841 S_4 (* 2.0 A_0) (* (- 2.0) S_2) (* (- 1.0) L_0)) 0.0)))
 (let (($x15656 (<= (+ A_2 ?x1397 ?x824 (* (- 2.0) A_0) L_0 S_1 S_0 A_3) 0.0)))
 (let ((?x1527 (* (- (/ 1.0 2.0)) A_1)))
 (let ((?x1346 (* (- (/ 1.0 2.0)) S_4)))
 (let (($x38478 (or $x3865 $x10128 (<= (+ A_2 ?x1397 ?x895 S_1) 0.0) (<= (+ ?x2248 ?x1346 ?x1574 ?x1347 ?x1348 S_1 ?x1527 ?x1708) 0.0) $x15656)))
 (let (($x11031 (or $x3865 (<= (+ A_2 ?x1397 ?x900 (* 2.0 S_1) L_0 ?x895) 0.0) $x10128)))
 (let (($x9001 (or $x3865 (<= (+ (* (- 2.0) S_4) (* 3.0 S_2) L_0 ?x895) 0.0))))
 (and (or $x1529 (<= (+ ?x841 S_3 A_0 ?x1343) 0.0)) (or $x1529 $x5753) (or $x3418 $x3865) $x9001 (or $x1805 $x2425 $x2895 $x3865) (or $x1805 $x3610) (or $x1737 $x1805 $x2425 $x11860) (or $x1597 $x1805) (or $x3865 $x11141) $x11031 $x38478 (or $x4175 $x14222) (or $x1529 $x1805) (or $x1345 $x1529) (or $x1345 $x2425 $x2895 $x3865) (or $x1345 $x2425 $x4175 $x14616) (or $x1805 $x2425 $x3865 $x12143) (or $x1737 $x6189 $x6054) (or $x4175 $x5934) (or $x1597 $x2116) (or $x2303 $x2583 $x3796 $x5881) (or $x1597 $x5753) (or $x1345 $x1597) (or $x1597 $x4357) (or $x889 $x1597 $x5373) (or $x889 $x2123 $x2303 $x2583 $x3865 $x4519 $x15660) (or $x3796 $x3865 $x14222) (or $x1345 $x3610) (or $x1597 (<= (+ ?x841 S_3 A_0 ?x1343) 0.0)) (or (<= (+ ?x841 S_3 A_0 ?x1343) 0.0) $x3610) (or $x2116 $x3610) (or $x1529 $x2116) (or $x3796 $x3865 $x5934) (or $x1597 $x1982 (<= (+ ?x1397 ?x1347 ?x1348 (* (/ 3.0 2.0) S_2)) 0.0)) (or $x1597 $x1982 $x11141) (or $x3865 $x10128 (<= (+ A_2 ?x824 ?x895 L_0 S_1) 0.0)) (or $x1737 $x5934) (or $x1982 $x3428 (<= (+ ?x1397 ?x1347 ?x1348 (* (/ 3.0 2.0) S_2)) 0.0)) (or $x4175 $x6189 $x6054) (or $x3610 $x5753) $x38579 (or $x1529 $x5373 $x6054) (or $x889 $x2583 $x4175 (<= ?x13624 0.0)) (or $x889 $x2303 $x2583 $x4175) (or $x889 $x4175 $x6189) (or $x889 $x2583 $x4175 $x20239) (or $x889 (not $x1597) $x3610) (or $x3610 $x5373 $x5934) (or $x2123 $x3865 $x4519 $x5934 $x15660) (or $x1345 $x2303 $x2425 $x3865 $x15660) (or $x1345 $x2303 $x2425 $x3796 $x3865) (or $x889 $x4175 (<= (+ ?x3058 ?x1591 ?x1589 ?x2571) 0.0)) (or $x1345 $x2425 $x3865 $x12143) (or (<= (+ ?x841 S_3 A_0 ?x1343) 0.0) $x2425 $x2895 $x3865) (or $x1805 $x2425 $x4175 $x14616) (or $x1345 $x2303 $x2425 $x4175) (or $x2425 $x3796 $x5881 $x20239) (or $x1982 $x3418 $x3428) $x69378 (or $x889 $x2303 $x2583 $x3796 $x3865) (or $x2123 $x2895 $x3865 $x4519 $x5934 $x12474) (or $x3610 $x5373 $x6054) (or $x889 $x2123 $x2583 $x2895 $x3865 $x4519 $x12474) (or $x1529 $x4357) (or $x1345 $x4175 $x6189) (or $x1345 $x1737 $x6189) (or $x3796 $x5881 $x6189) (or $x2303 $x2425 $x3796 $x5881) (or $x889 $x1529 $x5373) (or $x2583 $x3796 $x5881 $x20239) (or $x889 $x1737 $x2583 $x20239) (or $x889 $x1529 $x2123 $x4519 $x12474) (or $x1345 $x1737 $x2425 $x20239) (or $x1737 $x2425 $x5753 $x11860) (or $x1737 $x2425 $x5753 $x20239) (or $x1737 $x14222) (or $x1737 $x5753 $x6189) (or $x1529 $x5373 $x5934) (or $x4175 $x5753 $x6189) (or $x889 $x1597 $x2123 $x4519 $x12474) (or $x1529 $x2123 $x4519 $x5934 $x12474) (or $x889 $x1737 $x6189) (or $x1345 $x1737 $x2425 $x11860) (or $x1345 $x2425 $x4175 $x20239) (or $x2425 $x4175 $x5753 $x14616) (or $x2425 $x4175 $x5753 $x20239) (or $x3796 $x5881 $x14222) (<= (+ S_4 L_0 ?x824) 0.0) (<= (+ (* (- 1.0) S_1) S_0) 0.0) (<= (+ S_0 L_0 ?x895) 0.0) (<= (+ ?x1397 S_3) 0.0) (<= (+ ?x793 S_3 L_0) 0.0) (<= (+ ?x1343 S_1) 0.0) (<= (+ ?x1255 S_2) 0.0) (<= (+ ?x900 S_1 L_0) 0.0) (<= (+ ?x841 S_2 L_0) 0.0))))))))))))))))))))))))))))))))))))))))))))))))))))))))))))))))))))))))))
(check-sat)
